61
100
70	12
69	8
68	14
67	15
66	10
65	11
64	8
63	9
62	8
61	6
60	11
59	18
58	15
57	14
56	7
55	14
54	16
53	15
52	8
51	16
50	18
49	11
48	9
47	14
46	13
45	15
44	15
43	11
42	12
41	9
40	10
39	13
38	14
37	12
36	14
35	15
34	21
33	16
32	17
31	11
30	13
29	11
28	15
27	11
26	8
25	10
24	11
23	13
22	11
21	9
20	22
19	9
18	7
17	12
16	11
15	13
14	11
13	10
12	9
11	15
10	14
